NAME : lin105.tsp
TYPE : TOUR
DIMENSION : 105
TOUR_LENGTH : 15697.119432657044
TOUR_SECTION
1
2
6
7
10
11
15
103
21
22
29
30
31
32
33
28
23
20
19
24
27
25
18
16
17
26
36
37
42
43
46
52
53
58
54
57
51
47
44
41
104
40
49
45
48
50
55
56
59
105
62
63
70
74
75
81
80
76
73
69
72
77
79
84
83
82
78
71
68
67
64
86
85
91
92
96
97
101
102
93
98
99
90
89
95
94
100
87
88
66
65
61
60
39
38
35
34
14
13
5
4
9
8
3
12
-1
